% Generated by MiniZinc 2.9.3
% Solver library: /home/icwmmarijnisse/Pumpkin/minizinc/lib
% Command line invocation: minizinc --compile --fzn ./instance.fzn --ozn ./instance.ozn --solver pumpkin ../../../../benchmarks/models/tsp/instances/tsp.mzn ../../../../benchmarks/models/tsp/instances/TSP_N15_3.dzn 

predicate pumpkin_circuit(array [int] of var int: x);
array [1..15] of int: X_INTRODUCED_33_ = [0,566,152,441,131,43,316,374,921,956,816,996,882,41,921];
array [1..15] of int: X_INTRODUCED_35_ = [566,0,367,216,699,256,683,106,363,799,574,906,896,417,998];
array [1..15] of int: X_INTRODUCED_37_ = [152,367,0,636,768,159,948,953,243,886,167,1000,820,831,182];
array [1..15] of int: X_INTRODUCED_39_ = [441,216,636,0,903,423,26,184,755,947,341,802,954,422,822];
array [1..15] of int: X_INTRODUCED_41_ = [131,699,768,903,0,686,885,753,831,255,274,164,807,719,111];
array [1..15] of int: X_INTRODUCED_43_ = [43,256,159,423,686,0,392,894,40,880,482,228,205,837,941];
array [1..15] of int: X_INTRODUCED_45_ = [316,683,948,26,885,392,0,472,359,313,841,815,893,234,229];
array [1..15] of int: X_INTRODUCED_47_ = [374,106,953,184,753,894,472,0,25,676,198,409,337,286,886];
array [1..15] of int: X_INTRODUCED_49_ = [921,363,243,755,831,40,359,25,0,72,991,792,286,360,657];
array [1..15] of int: X_INTRODUCED_51_ = [956,799,886,947,255,880,313,676,72,0,522,410,696,864,550];
array [1..15] of int: X_INTRODUCED_53_ = [816,574,167,341,274,482,841,198,991,522,0,340,962,29,119];
array [1..15] of int: X_INTRODUCED_55_ = [996,906,1000,802,164,228,815,409,792,410,340,0,899,994,268];
array [1..15] of int: X_INTRODUCED_57_ = [882,896,820,954,807,205,893,337,286,696,962,899,0,183,595];
array [1..15] of int: X_INTRODUCED_59_ = [41,417,831,422,719,837,234,286,360,864,29,994,183,0,986];
array [1..15] of int: X_INTRODUCED_61_ = [921,998,182,822,111,941,229,886,657,550,119,268,595,986,0];
array [1..16] of int: X_INTRODUCED_66_ = [1,-1,-1,-1,-1,-1,-1,-1,-1,-1,-1,-1,-1,-1,-1,-1];
var 1..15: X_INTRODUCED_16_;
var 1..15: X_INTRODUCED_17_;
var 1..15: X_INTRODUCED_18_;
var 1..15: X_INTRODUCED_19_;
var 1..15: X_INTRODUCED_20_;
var 1..15: X_INTRODUCED_21_;
var 1..15: X_INTRODUCED_22_;
var 1..15: X_INTRODUCED_23_;
var 1..15: X_INTRODUCED_24_;
var 1..15: X_INTRODUCED_25_;
var 1..15: X_INTRODUCED_26_;
var 1..15: X_INTRODUCED_27_;
var 1..15: X_INTRODUCED_28_;
var 1..15: X_INTRODUCED_29_;
var 1..15: X_INTRODUCED_30_;
var 0..14585: Objective:: output_var:: is_defined_var;
var 0..996: X_INTRODUCED_34_ ::var_is_introduced :: is_defined_var;
var 0..998: X_INTRODUCED_36_ ::var_is_introduced :: is_defined_var;
var 0..1000: X_INTRODUCED_38_ ::var_is_introduced :: is_defined_var;
var 0..954: X_INTRODUCED_40_ ::var_is_introduced :: is_defined_var;
var 0..903: X_INTRODUCED_42_ ::var_is_introduced :: is_defined_var;
var 0..941: X_INTRODUCED_44_ ::var_is_introduced :: is_defined_var;
var 0..948: X_INTRODUCED_46_ ::var_is_introduced :: is_defined_var;
var 0..953: X_INTRODUCED_48_ ::var_is_introduced :: is_defined_var;
var 0..991: X_INTRODUCED_50_ ::var_is_introduced :: is_defined_var;
var 0..956: X_INTRODUCED_52_ ::var_is_introduced :: is_defined_var;
var 0..991: X_INTRODUCED_54_ ::var_is_introduced :: is_defined_var;
var 0..1000: X_INTRODUCED_56_ ::var_is_introduced :: is_defined_var;
var 0..962: X_INTRODUCED_58_ ::var_is_introduced :: is_defined_var;
var 0..994: X_INTRODUCED_60_ ::var_is_introduced :: is_defined_var;
var 0..998: X_INTRODUCED_62_ ::var_is_introduced :: is_defined_var;
array [1..15] of var int: Successor:: output_array([1..15]) = [X_INTRODUCED_16_,X_INTRODUCED_17_,X_INTRODUCED_18_,X_INTRODUCED_19_,X_INTRODUCED_20_,X_INTRODUCED_21_,X_INTRODUCED_22_,X_INTRODUCED_23_,X_INTRODUCED_24_,X_INTRODUCED_25_,X_INTRODUCED_26_,X_INTRODUCED_27_,X_INTRODUCED_28_,X_INTRODUCED_29_,X_INTRODUCED_30_];
array [1..16] of var int: X_INTRODUCED_65_ ::var_is_introduced  = [Objective,X_INTRODUCED_34_,X_INTRODUCED_36_,X_INTRODUCED_38_,X_INTRODUCED_40_,X_INTRODUCED_42_,X_INTRODUCED_44_,X_INTRODUCED_46_,X_INTRODUCED_48_,X_INTRODUCED_50_,X_INTRODUCED_52_,X_INTRODUCED_54_,X_INTRODUCED_56_,X_INTRODUCED_58_,X_INTRODUCED_60_,X_INTRODUCED_62_];
constraint pumpkin_circuit(Successor);
constraint array_int_element(X_INTRODUCED_16_,X_INTRODUCED_33_,X_INTRODUCED_34_):: defines_var(X_INTRODUCED_34_);
constraint array_int_element(X_INTRODUCED_17_,X_INTRODUCED_35_,X_INTRODUCED_36_):: defines_var(X_INTRODUCED_36_);
constraint array_int_element(X_INTRODUCED_18_,X_INTRODUCED_37_,X_INTRODUCED_38_):: defines_var(X_INTRODUCED_38_);
constraint array_int_element(X_INTRODUCED_19_,X_INTRODUCED_39_,X_INTRODUCED_40_):: defines_var(X_INTRODUCED_40_);
constraint array_int_element(X_INTRODUCED_20_,X_INTRODUCED_41_,X_INTRODUCED_42_):: defines_var(X_INTRODUCED_42_);
constraint array_int_element(X_INTRODUCED_21_,X_INTRODUCED_43_,X_INTRODUCED_44_):: defines_var(X_INTRODUCED_44_);
constraint array_int_element(X_INTRODUCED_22_,X_INTRODUCED_45_,X_INTRODUCED_46_):: defines_var(X_INTRODUCED_46_);
constraint array_int_element(X_INTRODUCED_23_,X_INTRODUCED_47_,X_INTRODUCED_48_):: defines_var(X_INTRODUCED_48_);
constraint array_int_element(X_INTRODUCED_24_,X_INTRODUCED_49_,X_INTRODUCED_50_):: defines_var(X_INTRODUCED_50_);
constraint array_int_element(X_INTRODUCED_25_,X_INTRODUCED_51_,X_INTRODUCED_52_):: defines_var(X_INTRODUCED_52_);
constraint array_int_element(X_INTRODUCED_26_,X_INTRODUCED_53_,X_INTRODUCED_54_):: defines_var(X_INTRODUCED_54_);
constraint array_int_element(X_INTRODUCED_27_,X_INTRODUCED_55_,X_INTRODUCED_56_):: defines_var(X_INTRODUCED_56_);
constraint array_int_element(X_INTRODUCED_28_,X_INTRODUCED_57_,X_INTRODUCED_58_):: defines_var(X_INTRODUCED_58_);
constraint array_int_element(X_INTRODUCED_29_,X_INTRODUCED_59_,X_INTRODUCED_60_):: defines_var(X_INTRODUCED_60_);
constraint array_int_element(X_INTRODUCED_30_,X_INTRODUCED_61_,X_INTRODUCED_62_):: defines_var(X_INTRODUCED_62_);
constraint int_lin_eq(X_INTRODUCED_66_,X_INTRODUCED_65_,0):: defines_var(Objective);
solve  minimize Objective;
